8705
4833935362
4294967300
32904
1074266128
160
134234176
168
1048832
262657
268502016
13113344
8603047936
69214209
16448
2148565000
66560
33685504
262656
13113360
2148565248
2105346
46667776
13113344
1090519040
37879808
335552512
402653248
469763072
536870914
1090519056
2148564992
4294967302
8589938688
